c File: data_files/evolved_graphs/g0417.col
c
c Auto generated graph
c
p edge 100 2000
e 1 11
e 1 12
e 1 13
e 1 15
e 1 18
e 1 19
e 1 21
e 1 22
e 1 23
e 1 25
e 1 26
e 1 28
e 1 30
e 1 37
e 1 62
e 1 74
e 1 80
e 1 81
e 1 85
e 1 87
e 1 98
e 1 99
e 2 7
e 2 9
e 2 11
e 2 12
e 2 15
e 2 17
e 2 18
e 2 19
e 2 21
e 2 23
e 2 25
e 2 26
e 2 27
e 2 28
e 2 29
e 2 30
e 2 31
e 2 32
e 2 33
e 2 34
e 2 40
e 2 47
e 2 49
e 2 55
e 2 57
e 2 61
e 2 74
e 2 76
e 2 78
e 2 79
e 2 83
e 2 85
e 2 86
e 2 94
e 2 97
e 2 98
e 2 100
e 3 4
e 3 7
e 3 11
e 3 13
e 3 14
e 3 16
e 3 17
e 3 18
e 3 19
e 3 20
e 3 21
e 3 22
e 3 23
e 3 25
e 3 26
e 3 27
e 3 29
e 3 31
e 3 32
e 3 36
e 3 37
e 3 41
e 3 45
e 3 52
e 3 55
e 3 57
e 3 63
e 3 64
e 3 69
e 3 84
e 3 88
e 3 92
e 4 12
e 4 13
e 4 14
e 4 15
e 4 17
e 4 18
e 4 19
e 4 20
e 4 23
e 4 24
e 4 25
e 4 26
e 4 27
e 4 28
e 4 31
e 4 35
e 4 37
e 4 40
e 4 41
e 4 45
e 4 56
e 4 60
e 4 61
e 4 62
e 4 72
e 4 75
e 4 80
e 4 87
e 4 88
e 4 97
e 4 99
e 4 100
e 5 11
e 5 12
e 5 13
e 5 14
e 5 15
e 5 17
e 5 19
e 5 20
e 5 23
e 5 24
e 5 26
e 5 31
e 5 33
e 5 47
e 5 49
e 5 53
e 5 58
e 5 68
e 5 77
e 5 80
e 5 89
e 5 91
e 5 92
e 5 93
e 5 97
e 6 11
e 6 12
e 6 13
e 6 14
e 6 15
e 6 16
e 6 18
e 6 19
e 6 20
e 6 21
e 6 24
e 6 27
e 6 29
e 6 32
e 6 36
e 6 41
e 6 47
e 6 64
e 6 74
e 6 77
e 6 85
e 6 86
e 6 93
e 6 96
e 7 11
e 7 12
e 7 13
e 7 14
e 7 15
e 7 16
e 7 17
e 7 19
e 7 20
e 7 23
e 7 24
e 7 25
e 7 26
e 7 27
e 7 28
e 7 29
e 7 31
e 7 32
e 7 33
e 7 43
e 7 51
e 7 54
e 7 62
e 7 65
e 7 66
e 7 68
e 7 70
e 7 74
e 7 76
e 7 78
e 7 81
e 7 84
e 7 92
e 7 94
e 7 99
e 8 11
e 8 13
e 8 14
e 8 15
e 8 16
e 8 18
e 8 19
e 8 21
e 8 22
e 8 23
e 8 25
e 8 27
e 8 30
e 8 32
e 8 37
e 8 38
e 8 39
e 8 43
e 8 44
e 8 52
e 8 56
e 8 58
e 8 61
e 8 65
e 8 75
e 8 77
e 8 84
e 8 89
e 8 95
e 8 98
e 8 99
e 8 100
e 9 11
e 9 12
e 9 13
e 9 14
e 9 17
e 9 19
e 9 21
e 9 24
e 9 25
e 9 26
e 9 27
e 9 28
e 9 29
e 9 30
e 9 31
e 9 32
e 9 36
e 9 39
e 9 42
e 9 43
e 9 51
e 9 58
e 9 59
e 9 62
e 9 74
e 9 79
e 9 83
e 9 85
e 9 87
e 9 88
e 9 90
e 9 92
e 9 98
e 10 11
e 10 12
e 10 13
e 10 15
e 10 16
e 10 17
e 10 18
e 10 21
e 10 22
e 10 24
e 10 25
e 10 27
e 10 29
e 10 31
e 10 32
e 10 34
e 10 35
e 10 36
e 10 37
e 10 43
e 10 44
e 10 45
e 10 49
e 10 58
e 10 60
e 10 65
e 10 66
e 10 71
e 10 76
e 10 77
e 10 81
e 10 86
e 10 87
e 10 88
e 10 91
e 10 92
e 10 94
e 11 26
e 11 50
e 11 62
e 11 63
e 11 64
e 11 65
e 11 66
e 11 67
e 11 68
e 11 69
e 11 70
e 11 71
e 11 72
e 11 73
e 11 74
e 11 75
e 11 76
e 11 77
e 11 78
e 11 79
e 11 80
e 11 81
e 11 82
e 11 83
e 11 84
e 11 85
e 11 86
e 11 87
e 11 88
e 11 89
e 11 90
e 11 91
e 11 92
e 11 93
e 11 94
e 11 95
e 11 96
e 11 97
e 11 98
e 11 99
e 11 100
e 12 28
e 12 46
e 12 56
e 12 58
e 12 62
e 12 63
e 12 64
e 12 65
e 12 66
e 12 67
e 12 68
e 12 69
e 12 70
e 12 71
e 12 72
e 12 73
e 12 74
e 12 75
e 12 76
e 12 77
e 12 78
e 12 79
e 12 80
e 12 81
e 12 82
e 12 83
e 12 84
e 12 85
e 12 86
e 12 87
e 12 88
e 12 89
e 12 90
e 12 91
e 12 92
e 12 93
e 12 94
e 12 95
e 12 96
e 12 97
e 12 98
e 12 99
e 12 100
e 13 60
e 13 62
e 13 63
e 13 64
e 13 65
e 13 66
e 13 67
e 13 68
e 13 69
e 13 70
e 13 71
e 13 72
e 13 73
e 13 74
e 13 75
e 13 76
e 13 77
e 13 78
e 13 79
e 13 80
e 13 81
e 13 82
e 13 83
e 13 84
e 13 85
e 13 86
e 13 87
e 13 88
e 13 89
e 13 90
e 13 91
e 13 92
e 13 93
e 13 94
e 13 95
e 13 96
e 13 97
e 13 98
e 13 99
e 13 100
e 14 29
e 14 32
e 14 41
e 14 62
e 14 63
e 14 64
e 14 65
e 14 66
e 14 67
e 14 68
e 14 69
e 14 70
e 14 71
e 14 72
e 14 73
e 14 74
e 14 75
e 14 76
e 14 77
e 14 78
e 14 79
e 14 80
e 14 81
e 14 82
e 14 83
e 14 84
e 14 85
e 14 86
e 14 87
e 14 88
e 14 89
e 14 90
e 14 91
e 14 92
e 14 93
e 14 94
e 14 95
e 14 96
e 14 97
e 14 98
e 14 99
e 14 100
e 15 40
e 15 62
e 15 63
e 15 64
e 15 65
e 15 66
e 15 67
e 15 68
e 15 69
e 15 70
e 15 71
e 15 72
e 15 73
e 15 74
e 15 75
e 15 76
e 15 77
e 15 78
e 15 79
e 15 80
e 15 81
e 15 82
e 15 83
e 15 84
e 15 85
e 15 86
e 15 87
e 15 88
e 15 89
e 15 90
e 15 91
e 15 92
e 15 93
e 15 94
e 15 95
e 15 96
e 15 97
e 15 98
e 15 99
e 15 100
e 16 20
e 16 28
e 16 34
e 16 35
e 16 48
e 16 58
e 16 62
e 16 63
e 16 64
e 16 65
e 16 66
e 16 67
e 16 68
e 16 69
e 16 70
e 16 71
e 16 72
e 16 73
e 16 74
e 16 75
e 16 76
e 16 77
e 16 78
e 16 79
e 16 80
e 16 81
e 16 82
e 16 83
e 16 84
e 16 85
e 16 86
e 16 87
e 16 88
e 16 89
e 16 90
e 16 91
e 16 92
e 16 93
e 16 94
e 16 95
e 16 96
e 16 97
e 16 98
e 16 99
e 16 100
e 17 25
e 17 30
e 17 62
e 17 63
e 17 64
e 17 65
e 17 66
e 17 67
e 17 68
e 17 69
e 17 70
e 17 71
e 17 72
e 17 73
e 17 74
e 17 75
e 17 76
e 17 77
e 17 78
e 17 79
e 17 80
e 17 81
e 17 82
e 17 83
e 17 84
e 17 85
e 17 86
e 17 87
e 17 88
e 17 89
e 17 90
e 17 91
e 17 92
e 17 93
e 17 94
e 17 95
e 17 96
e 17 97
e 17 98
e 17 99
e 17 100
e 18 41
e 18 50
e 18 62
e 18 63
e 18 64
e 18 65
e 18 66
e 18 67
e 18 68
e 18 69
e 18 70
e 18 71
e 18 72
e 18 73
e 18 74
e 18 75
e 18 76
e 18 77
e 18 78
e 18 79
e 18 80
e 18 81
e 18 82
e 18 83
e 18 84
e 18 85
e 18 86
e 18 87
e 18 88
e 18 89
e 18 90
e 18 91
e 18 92
e 18 93
e 18 94
e 18 95
e 18 96
e 18 97
e 18 98
e 18 99
e 18 100
e 19 37
e 19 38
e 19 59
e 19 62
e 19 63
e 19 64
e 19 66
e 19 69
e 19 70
e 19 71
e 19 72
e 19 73
e 19 78
e 19 79
e 19 81
e 19 82
e 19 83
e 19 84
e 19 87
e 19 88
e 19 90
e 19 91
e 19 93
e 19 96
e 19 97
e 19 98
e 19 100
e 20 23
e 20 27
e 20 38
e 20 51
e 20 63
e 20 64
e 20 65
e 20 66
e 20 67
e 20 68
e 20 69
e 20 70
e 20 72
e 20 73
e 20 75
e 20 78
e 20 79
e 20 80
e 20 82
e 20 83
e 20 84
e 20 85
e 20 87
e 20 88
e 20 89
e 20 90
e 20 91
e 20 94
e 20 96
e 20 97
e 20 98
e 20 99
e 21 24
e 21 36
e 21 57
e 21 62
e 21 64
e 21 68
e 21 72
e 21 73
e 21 74
e 21 75
e 21 76
e 21 77
e 21 78
e 21 80
e 21 81
e 21 82
e 21 83
e 21 85
e 21 89
e 21 90
e 21 93
e 21 94
e 21 95
e 21 96
e 21 98
e 21 99
e 22 24
e 22 28
e 22 30
e 22 50
e 22 52
e 22 63
e 22 66
e 22 67
e 22 68
e 22 71
e 22 72
e 22 74
e 22 75
e 22 76
e 22 82
e 22 84
e 22 86
e 22 87
e 22 90
e 22 91
e 22 92
e 22 93
e 22 94
e 22 98
e 22 99
e 23 40
e 23 45
e 23 55
e 23 57
e 23 63
e 23 64
e 23 66
e 23 68
e 23 71
e 23 72
e 23 73
e 23 74
e 23 78
e 23 79
e 23 80
e 23 82
e 23 83
e 23 86
e 23 88
e 23 90
e 23 91
e 23 92
e 23 93
e 23 96
e 23 99
e 24 33
e 24 34
e 24 42
e 24 64
e 24 67
e 24 71
e 24 73
e 24 75
e 24 76
e 24 77
e 24 78
e 24 80
e 24 81
e 24 82
e 24 83
e 24 88
e 24 89
e 24 90
e 24 92
e 24 96
e 24 97
e 24 98
e 24 99
e 24 100
e 25 27
e 25 38
e 25 39
e 25 40
e 25 49
e 25 62
e 25 63
e 25 64
e 25 65
e 25 66
e 25 67
e 25 68
e 25 71
e 25 72
e 25 73
e 25 74
e 25 75
e 25 77
e 25 78
e 25 79
e 25 80
e 25 81
e 25 83
e 25 84
e 25 85
e 25 87
e 25 88
e 25 90
e 25 92
e 25 94
e 25 96
e 25 97
e 25 99
e 25 100
e 26 62
e 26 63
e 26 64
e 26 66
e 26 68
e 26 70
e 26 73
e 26 75
e 26 78
e 26 79
e 26 80
e 26 81
e 26 83
e 26 84
e 26 85
e 26 87
e 26 89
e 26 90
e 26 91
e 26 92
e 26 93
e 26 95
e 26 96
e 26 98
e 26 99
e 26 100
e 27 54
e 27 57
e 27 58
e 27 60
e 27 62
e 27 63
e 27 64
e 27 65
e 27 66
e 27 68
e 27 70
e 27 71
e 27 73
e 27 74
e 27 77
e 27 78
e 27 79
e 27 80
e 27 81
e 27 82
e 27 83
e 27 85
e 27 86
e 27 89
e 27 90
e 27 91
e 27 92
e 27 94
e 27 96
e 27 99
e 27 100
e 28 30
e 28 34
e 28 56
e 28 63
e 28 67
e 28 68
e 28 69
e 28 71
e 28 72
e 28 75
e 28 77
e 28 78
e 28 80
e 28 81
e 28 83
e 28 87
e 28 90
e 28 92
e 28 96
e 28 97
e 28 98
e 28 100
e 29 54
e 29 65
e 29 67
e 29 70
e 29 72
e 29 73
e 29 74
e 29 75
e 29 76
e 29 77
e 29 78
e 29 79
e 29 80
e 29 83
e 29 84
e 29 90
e 29 95
e 29 100
e 30 39
e 30 41
e 30 42
e 30 59
e 30 61
e 30 62
e 30 64
e 30 65
e 30 66
e 30 68
e 30 69
e 30 70
e 30 71
e 30 72
e 30 73
e 30 75
e 30 76
e 30 77
e 30 78
e 30 79
e 30 80
e 30 81
e 30 84
e 30 88
e 30 90
e 30 92
e 30 93
e 30 94
e 31 41
e 31 57
e 31 63
e 31 67
e 31 69
e 31 70
e 31 71
e 31 72
e 31 73
e 31 74
e 31 75
e 31 76
e 31 77
e 31 78
e 31 79
e 31 80
e 31 85
e 31 88
e 31 90
e 31 92
e 31 93
e 31 94
e 31 95
e 31 99
e 31 100
e 32 42
e 32 46
e 32 49
e 32 60
e 32 63
e 32 64
e 32 67
e 32 68
e 32 70
e 32 71
e 32 72
e 32 74
e 32 76
e 32 77
e 32 78
e 32 79
e 32 81
e 32 86
e 32 87
e 32 91
e 32 94
e 32 98
e 32 99
e 32 100
e 33 49
e 33 63
e 33 67
e 33 70
e 33 71
e 33 72
e 33 75
e 33 77
e 33 79
e 33 80
e 33 83
e 33 86
e 33 89
e 33 91
e 33 93
e 33 94
e 33 95
e 33 96
e 33 98
e 33 100
e 34 51
e 34 59
e 34 63
e 34 64
e 34 65
e 34 70
e 34 72
e 34 74
e 34 75
e 34 77
e 34 78
e 34 79
e 34 80
e 34 82
e 34 83
e 34 84
e 34 87
e 34 89
e 34 90
e 34 97
e 34 100
e 35 37
e 35 38
e 35 45
e 35 62
e 35 64
e 35 65
e 35 67
e 35 68
e 35 69
e 35 72
e 35 74
e 35 75
e 35 76
e 35 77
e 35 79
e 35 87
e 35 88
e 35 89
e 35 90
e 35 92
e 35 94
e 35 96
e 35 97
e 35 98
e 35 99
e 35 100
e 36 40
e 36 41
e 36 58
e 36 62
e 36 63
e 36 64
e 36 65
e 36 67
e 36 68
e 36 70
e 36 72
e 36 73
e 36 75
e 36 76
e 36 78
e 36 79
e 36 81
e 36 87
e 36 90
e 36 91
e 36 92
e 36 94
e 36 98
e 36 99
e 36 100
e 37 41
e 37 45
e 37 63
e 37 66
e 37 67
e 37 70
e 37 71
e 37 72
e 37 76
e 37 78
e 37 83
e 37 84
e 37 85
e 37 87
e 37 88
e 37 89
e 37 91
e 37 94
e 37 95
e 37 96
e 37 99
e 38 45
e 38 58
e 38 62
e 38 63
e 38 64
e 38 67
e 38 70
e 38 71
e 38 74
e 38 75
e 38 76
e 38 79
e 38 80
e 38 81
e 38 83
e 38 84
e 38 87
e 38 88
e 38 92
e 38 93
e 38 94
e 38 95
e 38 98
e 38 99
e 38 100
e 39 56
e 39 60
e 39 63
e 39 64
e 39 67
e 39 68
e 39 72
e 39 73
e 39 74
e 39 76
e 39 78
e 39 80
e 39 82
e 39 84
e 39 86
e 39 87
e 39 89
e 39 90
e 39 91
e 39 92
e 39 94
e 39 95
e 39 100
e 40 64
e 40 65
e 40 67
e 40 68
e 40 69
e 40 71
e 40 74
e 40 75
e 40 76
e 40 79
e 40 80
e 40 81
e 40 84
e 40 86
e 40 88
e 40 89
e 40 90
e 40 91
e 40 92
e 40 93
e 40 95
e 40 97
e 40 100
e 41 49
e 41 56
e 41 58
e 41 60
e 41 63
e 41 66
e 41 69
e 41 71
e 41 73
e 41 76
e 41 77
e 41 80
e 41 81
e 41 82
e 41 84
e 41 85
e 41 88
e 41 90
e 41 91
e 41 94
e 41 96
e 41 97
e 41 100
e 42 44
e 42 46
e 42 47
e 42 59
e 42 62
e 42 63
e 42 64
e 42 65
e 42 67
e 42 68
e 42 69
e 42 70
e 42 71
e 42 72
e 42 73
e 42 74
e 42 75
e 42 76
e 42 77
e 42 78
e 42 80
e 42 83
e 42 84
e 42 85
e 42 86
e 42 87
e 42 88
e 42 89
e 42 92
e 42 93
e 42 94
e 42 95
e 42 96
e 42 98
e 42 99
e 43 47
e 43 64
e 43 65
e 43 66
e 43 67
e 43 68
e 43 70
e 43 71
e 43 73
e 43 74
e 43 75
e 43 76
e 43 77
e 43 78
e 43 79
e 43 80
e 43 82
e 43 83
e 43 84
e 43 85
e 43 88
e 43 90
e 43 91
e 43 92
e 43 93
e 43 95
e 43 96
e 43 97
e 43 99
e 44 57
e 44 63
e 44 64
e 44 68
e 44 69
e 44 70
e 44 71
e 44 72
e 44 75
e 44 76
e 44 78
e 44 83
e 44 87
e 44 90
e 44 92
e 44 93
e 44 94
e 44 97
e 44 99
e 44 100
e 45 63
e 45 65
e 45 67
e 45 68
e 45 72
e 45 74
e 45 76
e 45 77
e 45 78
e 45 80
e 45 81
e 45 84
e 45 86
e 45 87
e 45 89
e 45 90
e 45 92
e 45 93
e 45 94
e 45 95
e 45 96
e 45 97
e 46 50
e 46 63
e 46 64
e 46 65
e 46 67
e 46 68
e 46 69
e 46 72
e 46 73
e 46 74
e 46 75
e 46 76
e 46 78
e 46 80
e 46 82
e 46 83
e 46 85
e 46 87
e 46 88
e 46 90
e 46 91
e 46 94
e 46 95
e 46 96
e 47 51
e 47 55
e 47 61
e 47 64
e 47 67
e 47 73
e 47 74
e 47 75
e 47 78
e 47 80
e 47 87
e 47 88
e 47 89
e 47 92
e 47 93
e 47 95
e 47 96
e 47 100
e 48 62
e 48 63
e 48 64
e 48 67
e 48 70
e 48 71
e 48 74
e 48 75
e 48 76
e 48 77
e 48 78
e 48 80
e 48 82
e 48 83
e 48 86
e 48 87
e 48 88
e 48 93
e 48 94
e 48 95
e 48 96
e 48 99
e 48 100
e 49 63
e 49 64
e 49 65
e 49 66
e 49 71
e 49 72
e 49 73
e 49 74
e 49 76
e 49 78
e 49 80
e 49 81
e 49 82
e 49 83
e 49 85
e 49 88
e 49 90
e 49 92
e 49 93
e 49 94
e 49 97
e 49 99
e 49 100
e 50 56
e 50 58
e 50 63
e 50 65
e 50 66
e 50 67
e 50 68
e 50 69
e 50 70
e 50 71
e 50 72
e 50 76
e 50 77
e 50 80
e 50 81
e 50 82
e 50 86
e 50 87
e 50 89
e 50 90
e 50 91
e 50 94
e 50 96
e 50 99
e 50 100
e 51 53
e 51 63
e 51 64
e 51 67
e 51 69
e 51 71
e 51 72
e 51 74
e 51 76
e 51 80
e 51 82
e 51 83
e 51 84
e 51 85
e 51 86
e 51 90
e 51 92
e 51 94
e 51 96
e 51 97
e 51 98
e 51 99
e 51 100
e 52 64
e 52 67
e 52 68
e 52 71
e 52 74
e 52 75
e 52 76
e 52 77
e 52 78
e 52 80
e 52 81
e 52 83
e 52 84
e 52 88
e 52 89
e 52 93
e 52 94
e 52 95
e 52 97
e 52 98
e 53 54
e 53 62
e 53 63
e 53 64
e 53 73
e 53 74
e 53 76
e 53 77
e 53 78
e 53 79
e 53 81
e 53 82
e 53 84
e 53 86
e 53 87
e 53 88
e 53 90
e 53 93
e 53 94
e 53 96
e 53 97
e 53 99
e 54 63
e 54 65
e 54 66
e 54 67
e 54 68
e 54 71
e 54 72
e 54 73
e 54 74
e 54 75
e 54 76
e 54 77
e 54 81
e 54 82
e 54 83
e 54 84
e 54 87
e 54 88
e 54 91
e 54 94
e 54 95
e 54 98
e 54 100
e 55 62
e 55 63
e 55 65
e 55 67
e 55 72
e 55 73
e 55 74
e 55 75
e 55 76
e 55 78
e 55 79
e 55 82
e 55 83
e 55 84
e 55 87
e 55 88
e 55 89
e 55 93
e 55 94
e 55 95
e 55 96
e 55 97
e 55 98
e 55 99
e 55 100
e 56 62
e 56 63
e 56 65
e 56 66
e 56 67
e 56 68
e 56 69
e 56 70
e 56 72
e 56 73
e 56 74
e 56 82
e 56 87
e 56 88
e 56 89
e 56 91
e 56 93
e 56 95
e 56 96
e 56 100
e 57 58
e 57 62
e 57 63
e 57 64
e 57 65
e 57 66
e 57 67
e 57 68
e 57 70
e 57 72
e 57 73
e 57 76
e 57 77
e 57 80
e 57 81
e 57 85
e 57 86
e 57 88
e 57 92
e 57 94
e 57 95
e 57 96
e 57 97
e 57 98
e 57 99
e 57 100
e 58 60
e 58 61
e 58 63
e 58 65
e 58 67
e 58 68
e 58 69
e 58 70
e 58 71
e 58 72
e 58 77
e 58 78
e 58 80
e 58 83
e 58 84
e 58 86
e 58 89
e 58 90
e 58 94
e 58 95
e 58 98
e 58 99
e 59 63
e 59 65
e 59 66
e 59 70
e 59 72
e 59 75
e 59 76
e 59 80
e 59 82
e 59 83
e 59 85
e 59 86
e 59 87
e 59 88
e 59 89
e 59 90
e 59 91
e 59 93
e 59 96
e 59 98
e 59 99
e 59 100
e 60 62
e 60 64
e 60 65
e 60 66
e 60 67
e 60 68
e 60 69
e 60 71
e 60 72
e 60 73
e 60 74
e 60 75
e 60 76
e 60 81
e 60 82
e 60 83
e 60 85
e 60 86
e 60 88
e 60 89
e 60 92
e 60 94
e 60 97
e 60 100
e 61 62
e 61 65
e 61 68
e 61 69
e 61 71
e 61 73
e 61 75
e 61 76
e 61 78
e 61 81
e 61 82
e 61 83
e 61 85
e 61 87
e 61 88
e 61 89
e 61 91
e 61 93
e 61 95
e 61 96
e 62 63
e 62 70
e 62 75
e 62 81
e 62 82
e 62 83
e 62 85
e 62 87
e 62 88
e 62 89
e 62 90
e 62 91
e 62 92
e 62 93
e 62 94
e 62 96
e 62 97
e 62 98
e 63 83
e 63 84
e 63 86
e 63 89
e 63 90
e 63 91
e 63 92
e 63 93
e 63 96
e 63 97
e 63 98
e 63 99
e 63 100
e 64 70
e 64 78
e 64 82
e 64 83
e 64 84
e 64 85
e 64 86
e 64 87
e 64 88
e 64 90
e 64 91
e 64 92
e 64 94
e 64 95
e 64 96
e 64 97
e 64 98
e 64 99
e 64 100
e 65 66
e 65 67
e 65 72
e 65 83
e 65 84
e 65 85
e 65 86
e 65 87
e 65 89
e 65 90
e 65 93
e 65 95
e 65 96
e 65 98
e 65 99
e 66 76
e 66 79
e 66 80
e 66 81
e 66 82
e 66 83
e 66 86
e 66 87
e 66 88
e 66 89
e 66 90
e 66 91
e 66 92
e 66 94
e 66 95
e 66 96
e 66 99
e 66 100
e 67 68
e 67 71
e 67 72
e 67 78
e 67 83
e 67 84
e 67 85
e 67 86
e 67 88
e 67 89
e 67 90
e 67 91
e 67 93
e 67 94
e 67 96
e 67 98
e 67 99
e 67 100
e 68 69
e 68 78
e 68 79
e 68 81
e 68 82
e 68 83
e 68 84
e 68 85
e 68 86
e 68 87
e 68 89
e 68 91
e 68 93
e 68 94
e 68 96
e 68 97
e 68 98
e 68 99
e 69 83
e 69 85
e 69 86
e 69 89
e 69 90
e 69 91
e 69 92
e 69 94
e 69 96
e 69 97
e 69 98
e 69 99
e 70 81
e 70 82
e 70 83
e 70 84
e 70 85
e 70 86
e 70 87
e 70 89
e 70 90
e 70 91
e 70 96
e 70 97
e 70 99
e 70 100
e 71 81
e 71 82
e 71 83
e 71 84
e 71 85
e 71 86
e 71 87
e 71 88
e 71 89
e 71 91
e 71 93
e 71 94
e 71 95
e 71 97
e 71 98
e 71 100
e 72 75
e 72 81
e 72 82
e 72 83
e 72 85
e 72 87
e 72 88
e 72 89
e 72 90
e 72 91
e 72 92
e 72 94
e 72 95
e 72 96
e 72 97
e 72 98
e 72 99
e 72 100
e 73 81
e 73 82
e 73 83
e 73 84
e 73 85
e 73 87
e 73 88
e 73 89
e 73 90
e 73 91
e 73 92
e 73 93
e 73 94
e 73 95
e 73 97
e 73 98
e 73 99
e 73 100
e 74 81
e 74 82
e 74 84
e 74 85
e 74 86
e 74 87
e 74 88
e 74 92
e 74 94
e 74 95
e 74 97
e 74 99
e 75 77
e 75 81
e 75 82
e 75 83
e 75 84
e 75 86
e 75 87
e 75 88
e 75 89
e 75 90
e 75 92
e 75 93
e 75 95
e 75 96
e 75 97
e 75 99
e 75 100
e 76 78
e 76 81
e 76 84
e 76 86
e 76 88
e 76 89
e 76 90
e 76 92
e 76 94
e 76 95
e 76 96
e 76 97
e 76 100
e 77 81
e 77 82
e 77 83
e 77 84
e 77 85
e 77 86
e 77 87
e 77 88
e 77 89
e 77 90
e 77 91
e 77 93
e 77 94
e 77 95
e 77 96
e 77 97
e 77 98
e 77 99
e 77 100
e 78 81
e 78 82
e 78 83
e 78 86
e 78 87
e 78 88
e 78 89
e 78 90
e 78 91
e 78 92
e 78 93
e 78 94
e 78 96
e 78 97
e 78 98
e 78 100
e 79 81
e 79 84
e 79 85
e 79 86
e 79 87
e 79 88
e 79 89
e 79 90
e 79 91
e 79 92
e 79 94
e 79 95
e 79 98
e 79 100
e 80 81
e 80 82
e 80 83
e 80 84
e 80 85
e 80 86
e 80 87
e 80 88
e 80 90
e 80 91
e 80 93
e 80 95
e 80 96
e 80 100
e 81 82
e 81 91
e 81 93
e 81 97
e 81 98
e 83 100
e 84 96
e 85 100
e 87 90
e 87 92
e 87 99
e 89 93
e 94 98
e 95 98
e 95 100
e 99 100
